(declare-const x0 Real)
(assert (<= 0.100000 x0))
(declare-const x1 Real)
(assert (<= 0.0 x1))
(declare-const x2 Real)
(assert (<= 0.0 x2))


(minimize
	(+ (^ (+ (- 0.010000) (exp (- (/ (^ (- 62.567341 x1) x2) x0)))) 2.0) (^ (+ (- 0.020000) (exp (- (/ (^ (- 58.696201 x1) x2) x0)))) 2.0) (^ (+ (- 0.030000) (exp (- (/ (^ (- 56.325692 x1) x2) x0)))) 2.0) (^ (+ (- 0.040000) (exp (- (/ (^ (- 54.588037 x1) x2) x0)))) 2.0) (^ (+ (- 0.050000) (exp (- (/ (^ (- 53.204301 x1) x2) x0)))) 2.0) (^ (+ (- 0.060000) (exp (- (/ (^ (- 52.048017 x1) x2) x0)))) 2.0) (^ (+ (- 0.070000) (exp (- (/ (^ (- 51.050769 x1) x2) x0)))) 2.0) (^ (+ (- 0.080000) (exp (- (/ (^ (- 50.171231 x1) x2) x0)))) 2.0) (^ (+ (- 0.090000) (exp (- (/ (^ (- 49.382475 x1) x2) x0)))) 2.0) (^ (+ (- 0.100000) (exp (- (/ (^ (- 48.665942 x1) x2) x0)))) 2.0) (^ (+ (- 0.110000) (exp (- (/ (^ (- 48.008287 x1) x2) x0)))) 2.0) (^ (+ (- 0.120000) (exp (- (/ (^ (- 47.399581 x1) x2) x0)))) 2.0) (^ (+ (- 0.130000) (exp (- (/ (^ (- 46.832231 x1) x2) x0)))) 2.0) (^ (+ (- 0.140000) (exp (- (/ (^ (- 46.300296 x1) x2) x0)))) 2.0) (^ (+ (- 0.150000) (exp (- (/ (^ (- 45.799036 x1) x2) x0)))) 2.0) (^ (+ (- 0.160000) (exp (- (/ (^ (- 45.324609 x1) x2) x0)))) 2.0) (^ (+ (- 0.170000) (exp (- (/ (^ (- 44.873854 x1) x2) x0)))) 2.0) (^ (+ (- 0.180000) (exp (- (/ (^ (- 44.444139 x1) x2) x0)))) 2.0) (^ (+ (- 0.190000) (exp (- (/ (^ (- 44.033248 x1) x2) x0)))) 2.0) (^ (+ (- 0.200000) (exp (- (/ (^ (- 43.639295 x1) x2) x0)))) 2.0) (^ (+ (- 0.210000) (exp (- (/ (^ (- 43.260665 x1) x2) x0)))) 2.0) (^ (+ (- 0.220000) (exp (- (/ (^ (- 42.895960 x1) x2) x0)))) 2.0) (^ (+ (- 0.230000) (exp (- (/ (^ (- 42.543964 x1) x2) x0)))) 2.0) (^ (+ (- 0.240000) (exp (- (/ (^ (- 42.203610 x1) x2) x0)))) 2.0) (^ (+ (- 0.250000) (exp (- (/ (^ (- 41.873958 x1) x2) x0)))) 2.0) (^ (+ (- 0.260000) (exp (- (/ (^ (- 41.554176 x1) x2) x0)))) 2.0) (^ (+ (- 0.270000) (exp (- (/ (^ (- 41.243520 x1) x2) x0)))) 2.0) (^ (+ (- 0.280000) (exp (- (/ (^ (- 40.941327 x1) x2) x0)))) 2.0) (^ (+ (- 0.290000) (exp (- (/ (^ (- 40.646999 x1) x2) x0)))) 2.0) (^ (+ (- 0.300000) (exp (- (/ (^ (- 40.359997 x1) x2) x0)))) 2.0) (^ (+ (- 0.310000) (exp (- (/ (^ (- 40.079832 x1) x2) x0)))) 2.0) (^ (+ (- 0.320000) (exp (- (/ (^ (- 39.806061 x1) x2) x0)))) 2.0) (^ (+ (- 0.330000) (exp (- (/ (^ (- 39.538277 x1) x2) x0)))) 2.0) (^ (+ (- 0.340000) (exp (- (/ (^ (- 39.276110 x1) x2) x0)))) 2.0) (^ (+ (- 0.350000) (exp (- (/ (^ (- 39.019219 x1) x2) x0)))) 2.0) (^ (+ (- 0.360000) (exp (- (/ (^ (- 38.767290 x1) x2) x0)))) 2.0) (^ (+ (- 0.370000) (exp (- (/ (^ (- 38.520032 x1) x2) x0)))) 2.0) (^ (+ (- 0.380000) (exp (- (/ (^ (- 38.277179 x1) x2) x0)))) 2.0) (^ (+ (- 0.390000) (exp (- (/ (^ (- 38.038479 x1) x2) x0)))) 2.0) (^ (+ (- 0.400000) (exp (- (/ (^ (- 37.803701 x1) x2) x0)))) 2.0) (^ (+ (- 0.410000) (exp (- (/ (^ (- 37.572629 x1) x2) x0)))) 2.0) (^ (+ (- 0.420000) (exp (- (/ (^ (- 37.345059 x1) x2) x0)))) 2.0) (^ (+ (- 0.430000) (exp (- (/ (^ (- 37.120802 x1) x2) x0)))) 2.0) (^ (+ (- 0.440000) (exp (- (/ (^ (- 36.899679 x1) x2) x0)))) 2.0) (^ (+ (- 0.450000) (exp (- (/ (^ (- 36.681521 x1) x2) x0)))) 2.0) (^ (+ (- 0.460000) (exp (- (/ (^ (- 36.466170 x1) x2) x0)))) 2.0) (^ (+ (- 0.470000) (exp (- (/ (^ (- 36.253475 x1) x2) x0)))) 2.0) (^ (+ (- 0.480000) (exp (- (/ (^ (- 36.043292 x1) x2) x0)))) 2.0) (^ (+ (- 0.490000) (exp (- (/ (^ (- 35.835486 x1) x2) x0)))) 2.0) (^ (+ (- 0.500000) (exp (- (/ (^ (- 35.629928 x1) x2) x0)))) 2.0) (^ (+ (- 0.510000) (exp (- (/ (^ (- 35.426493 x1) x2) x0)))) 2.0) (^ (+ (- 0.520000) (exp (- (/ (^ (- 35.225062 x1) x2) x0)))) 2.0) (^ (+ (- 0.530000) (exp (- (/ (^ (- 35.025522 x1) x2) x0)))) 2.0) (^ (+ (- 0.540000) (exp (- (/ (^ (- 34.827762 x1) x2) x0)))) 2.0) (^ (+ (- 0.550000) (exp (- (/ (^ (- 34.631676 x1) x2) x0)))) 2.0) (^ (+ (- 0.560000) (exp (- (/ (^ (- 34.437161 x1) x2) x0)))) 2.0) (^ (+ (- 0.570000) (exp (- (/ (^ (- 34.244118 x1) x2) x0)))) 2.0) (^ (+ (- 0.580000) (exp (- (/ (^ (- 34.052448 x1) x2) x0)))) 2.0) (^ (+ (- 0.590000) (exp (- (/ (^ (- 33.862056 x1) x2) x0)))) 2.0) (^ (+ (- 0.600000) (exp (- (/ (^ (- 33.672849 x1) x2) x0)))) 2.0) (^ (+ (- 0.610000) (exp (- (/ (^ (- 33.484734 x1) x2) x0)))) 2.0) (^ (+ (- 0.620000) (exp (- (/ (^ (- 33.297621 x1) x2) x0)))) 2.0) (^ (+ (- 0.630000) (exp (- (/ (^ (- 33.111420 x1) x2) x0)))) 2.0) (^ (+ (- 0.640000) (exp (- (/ (^ (- 32.926039 x1) x2) x0)))) 2.0) (^ (+ (- 0.650000) (exp (- (/ (^ (- 32.741391 x1) x2) x0)))) 2.0) (^ (+ (- 0.660000) (exp (- (/ (^ (- 32.557383 x1) x2) x0)))) 2.0) (^ (+ (- 0.670000) (exp (- (/ (^ (- 32.373926 x1) x2) x0)))) 2.0) (^ (+ (- 0.680000) (exp (- (/ (^ (- 32.190928 x1) x2) x0)))) 2.0) (^ (+ (- 0.690000) (exp (- (/ (^ (- 32.008294 x1) x2) x0)))) 2.0) (^ (+ (- 0.700000) (exp (- (/ (^ (- 31.825929 x1) x2) x0)))) 2.0) (^ (+ (- 0.710000) (exp (- (/ (^ (- 31.643733 x1) x2) x0)))) 2.0) (^ (+ (- 0.720000) (exp (- (/ (^ (- 31.461606 x1) x2) x0)))) 2.0) (^ (+ (- 0.730000) (exp (- (/ (^ (- 31.279442 x1) x2) x0)))) 2.0) (^ (+ (- 0.740000) (exp (- (/ (^ (- 31.097129 x1) x2) x0)))) 2.0) (^ (+ (- 0.750000) (exp (- (/ (^ (- 30.914552 x1) x2) x0)))) 2.0) (^ (+ (- 0.760000) (exp (- (/ (^ (- 30.731588 x1) x2) x0)))) 2.0) (^ (+ (- 0.770000) (exp (- (/ (^ (- 30.548105 x1) x2) x0)))) 2.0) (^ (+ (- 0.780000) (exp (- (/ (^ (- 30.363965 x1) x2) x0)))) 2.0) (^ (+ (- 0.790000) (exp (- (/ (^ (- 30.179015 x1) x2) x0)))) 2.0) (^ (+ (- 0.800000) (exp (- (/ (^ (- 29.993092 x1) x2) x0)))) 2.0) (^ (+ (- 0.810000) (exp (- (/ (^ (- 29.806017 x1) x2) x0)))) 2.0) (^ (+ (- 0.820000) (exp (- (/ (^ (- 29.617591 x1) x2) x0)))) 2.0) (^ (+ (- 0.830000) (exp (- (/ (^ (- 29.427595 x1) x2) x0)))) 2.0) (^ (+ (- 0.840000) (exp (- (/ (^ (- 29.235782 x1) x2) x0)))) 2.0) (^ (+ (- 0.850000) (exp (- (/ (^ (- 29.041873 x1) x2) x0)))) 2.0) (^ (+ (- 0.860000) (exp (- (/ (^ (- 28.845547 x1) x2) x0)))) 2.0) (^ (+ (- 0.870000) (exp (- (/ (^ (- 28.646436 x1) x2) x0)))) 2.0) (^ (+ (- 0.880000) (exp (- (/ (^ (- 28.444103 x1) x2) x0)))) 2.0) (^ (+ (- 0.890000) (exp (- (/ (^ (- 28.238033 x1) x2) x0)))) 2.0) (^ (+ (- 0.900000) (exp (- (/ (^ (- 28.027601 x1) x2) x0)))) 2.0) (^ (+ (- 0.910000) (exp (- (/ (^ (- 27.812034 x1) x2) x0)))) 2.0) (^ (+ (- 0.920000) (exp (- (/ (^ (- 27.590360 x1) x2) x0)))) 2.0) (^ (+ (- 0.930000) (exp (- (/ (^ (- 27.361316 x1) x2) x0)))) 2.0) (^ (+ (- 0.940000) (exp (- (/ (^ (- 27.123206 x1) x2) x0)))) 2.0) (^ (+ (- 0.950000) (exp (- (/ (^ (- 26.873644 x1) x2) x0)))) 2.0) (^ (+ (- 0.960000) (exp (- (/ (^ (- 26.609074 x1) x2) x0)))) 2.0) (^ (+ (- 0.970000) (exp (- (/ (^ (- 26.323709 x1) x2) x0)))) 2.0) (^ (+ (- 0.980000) (exp (- (/ (^ (- 26.006746 x1) x2) x0)))) 2.0) (^ (+ (- 0.990000) (exp (- (/ (^ (- 25.632073 x1) x2) x0)))) 2.0))
)
(check-sat)
(get-objectives)
(exit)

